(set-info :status unknown)
(declare-fun %Y () (_ BitVec 3))
(declare-fun %X () (_ BitVec 3))
(assert
 (let (($x15154 (and (distinct (bvurem ((_ zero_extend 31) %X) ((_ zero_extend 31) %Y)) ((_ zero_extend 31) (bvurem %X %Y))) true)))
 (and (and (distinct ((_ zero_extend 31) %Y) (_ bv0 34)) true) $x15154)))
(check-sat)
